c File: instances/12_0.50_1.col
c
c Description: Random graph of size 12 vertices and P(0.49999999999999994) of edges between any two vertices.
p col 12 66
e 1 2
e 1 3
e 1 7
e 1 8
e 1 10
e 1 12
e 2 6
e 2 7
e 2 8
e 2 11
e 3 4
e 3 8
e 3 10
e 3 11
e 3 12
e 4 6
e 4 7
e 5 6
e 5 9
e 5 10
e 5 11
e 6 7
e 6 8
e 6 10
e 6 11
e 6 12
e 7 8
e 7 10
e 7 12
e 9 10
e 10 11
e 11 12